z3_origin/DDC_ProveIneq_ISSAC10_ex4j.txt
sat
(:max-memory         18.62
 :memory             18.42
 :nlsat-arith-var    3
 :nlsat-atoms        50
 :nlsat-bool-var     1
 :nlsat-clauses      48
 :nlsat-conflicts    2
 :nlsat-decisions    3
 :nlsat-propagations 39
 :nlsat-stages       4
 :num-allocs         107361
 :rlimit-count       15725
 :time               0.01
 :total-time         0.02)
